SCIP Status        : solving was interrupted [time limit reached]
Total Time         :    3600.33
  solving          :    3600.30
  presolving       :       0.14 (included in solving)
  reading          :       0.03
  copying          :       0.07 (20 #copies) (minimal 0.00, maximal 0.01, average 0.00)
Original Problem   :
  Problem name     : benchmark/block2_55_11_10_10.design
  Variables        : 1466 (55 binary, 0 integer, 0 implicit integer, 1411 continuous)
  Constraints      : 2028 initial, 2028 maximal
  Objective        : minimize, 1 non-zeros (abs.min = 1, abs.max = 1)
Presolved Problem  :
  Problem name     : t_benchmark/block2_55_11_10_10.design
  Variables        : 2128 (55 binary, 0 integer, 0 implicit integer, 2073 continuous)
  Constraints      : 2028 initial, 2030 maximal
  Objective        : minimize, 1 non-zeros (abs.min = 1, abs.max = 1)
  Nonzeros         : 6922 constraint, 0 clique table
Presolvers         :   ExecTime  SetupTime  Calls  FixedVars   AggrVars   ChgTypes  ChgBounds   AddHoles    DelCons    AddCons   ChgSides   ChgCoefs
  boundshift       :       0.00       0.00      0          0          0          0          0          0          0          0          0          0
  convertinttobin  :       0.00       0.00      0          0          0          0          0          0          0          0          0          0
  domcol           :       0.00       0.00      1          0          0          0          0          0          0          0          0          0
  dualagg          :       0.00       0.00      0          0          0          0          0          0          0          0          0          0
  dualcomp         :       0.00       0.00      1          0          0          0          0          0          0          0          0          0
  dualinfer        :       0.00       0.00      0          0          0          0          0          0          0          0          0          0
  dualsparsify     :       0.00       0.00      1          0          0          0          0          0          0          0          0          0
  gateextraction   :       0.00       0.00      0          0          0          0          0          0          0          0          0          0
  implics          :       0.00       0.00      1          0          0          0          0          0          0          0          0          0
  inttobinary      :       0.00       0.00      0          0          0          0          0          0          0          0          0          0
  qpkktref         :       0.00       0.00      0          0          0          0          0          0          0          0          0          0
  redvub           :       0.00       0.00      0          0          0          0          0          0          0          0          0          0
  sparsify         :       0.00       0.00      1          0          0          0          0          0          0          0          0          0
  stuffing         :       0.00       0.00      0          0          0          0          0          0          0          0          0          0
  trivial          :       0.00       0.00      2         45          0          0          0          0          0          0          0          0
  tworowbnd        :       0.00       0.00      0          0          0          0          0          0          0          0          0          0
  dualfix          :       0.00       0.00      2         45          0          0          0          0          0          0          0          0
  genvbounds       :       0.00       0.00      0          0          0          0          0          0          0          0          0          0
  probing          :       0.02       0.00      1          0          0          0          0          0          0          0          0          0
  pseudoobj        :       0.00       0.00      0          0          0          0          0          0          0          0          0          0
  symmetry         :       0.00       0.00      1          0          0          0          0          0          0          0          0          0
  vbounds          :       0.00       0.00      0          0          0          0          0          0          0          0          0          0
  linear           :       0.01       0.00      3          0          0          0          0          0          0          0          0          0
  nonlinear        :       0.10       0.02      4          0          0          0        100          0          0          0          0          0
  benders          :       0.00       0.00      0          0          0          0          0          0          0          0          0          0
  components       :       0.00       0.00      1          0          0          0          0          0          0          0          0          0
  root node        :          -          -      -          0          -          -       2034          -          -          -          -          -
Constraints        :     Number  MaxNumber  #Separate #Propagate    #EnfoLP    #EnfoRelax  #EnfoPS    #Check   #ResProp    Cutoffs    DomReds       Cuts    Applied      Conss   Children
  benderslp        :          0          0          0          0      50722          0          0      63603          0          0          0          0          0          0          0
  integral         :          0          0          0          0      50722          0          0      63603          0          0       6749          0          0          0     100758
  linear           :       1377+      1379         71    1402012          1          0          0      63597          0         69      79353         33          3          0          0
  nonlinear        :        651        651     412969    1401943         79          0          0      35420          0        148    1096526    1391635    1373681          0          0
  benders          :          0          0          0          0          1          0          0          6          0          0          0          0          0          0          0
  countsols        :          0          0          0          0          1          0          0          6          0          0          0          0          0          0          0
  components       :          0          0          0          0          0          0          0          0          0          0          0          0          0          0          0
Constraint Timings :  TotalTime  SetupTime   Separate  Propagate     EnfoLP     EnfoPS     EnfoRelax   Check    ResProp    SB-Prop
  benderslp        :       0.06       0.00       0.00       0.00       0.02       0.00       0.00       0.04       0.00       0.00
  integral         :      11.33       0.00       0.00       0.00      11.30       0.00       0.00       0.03       0.00       0.00
  linear           :      33.05       0.00       0.02      30.50       0.00       0.00       0.00       2.52       0.00       0.01
  nonlinear        :     615.24       0.02     440.97     161.59       0.02       0.00       0.00      12.37       0.00       0.27
  benders          :       0.00       0.00       0.00       0.00       0.00       0.00       0.00       0.00       0.00       0.00
  countsols        :       0.00       0.00       0.00       0.00       0.00       0.00       0.00       0.00       0.00       0.00
  components       :       0.12       0.00       0.00       0.12       0.00       0.00       0.00       0.00       0.00       0.00
Propagators        : #Propagate   #ResProp    Cutoffs    DomReds
  dualfix          :          4          0          0          0
  genvbounds       :          0          0          0          0
  nlobbt           :          0          0          0          0
  obbt             :          0          0          0          0
  probing          :          0          0          0          0
  pseudoobj        :     141884          0          0         10
  redcost          :     514170          0          0          1
  rootredcost      :          4          0          0       1372
  symmetry         :          0          0          0          0
  vbounds          :     323722          0          0          0
Propagator Timings :  TotalTime  SetupTime   Presolve  Propagate    ResProp    SB-Prop
  dualfix          :       0.00       0.00       0.00       0.00       0.00       0.00
  genvbounds       :       0.83       0.00       0.00       0.82       0.00       0.01
  nlobbt           :       0.00       0.00       0.00       0.00       0.00       0.00
  obbt             :       0.00       0.00       0.00       0.00       0.00       0.00
  probing          :       0.02       0.00       0.02       0.00       0.00       0.00
  pseudoobj        :       0.56       0.00       0.00       0.56       0.00       0.00
  redcost          :       5.51       0.00       0.00       5.51       0.00       0.00
  rootredcost      :       0.45       0.00       0.00       0.45       0.00       0.00
  symmetry         :       0.34       0.00       0.00       0.34       0.00       0.00
  vbounds          :       0.63       0.00       0.00       0.63       0.00       0.00
Conflict Analysis  :       Time      Calls    Success    DomReds  Conflicts   Literals    Reconvs ReconvLits   Dualrays   Nonzeros   LP Iters   (pool size: [--,--])
  propagation      :       0.00          6          0          -          0        0.0          0        0.0          -          -          -
  infeasible LP    :       0.00          0          0          -          0        0.0          0        0.0         35      179.0          0
  bound exceed. LP :       0.28        197         35          -          0        0.0          0        0.0          0        0.0       2649
  strong branching :       0.00          0          0          -          0        0.0          0        0.0          -          -          0
  pseudo solution  :       0.00          0          0          -          0        0.0          0        0.0          -          -          -
  applied globally :       0.00          -          -          0          0        0.0          -          -         35          -          -
  applied locally  :          -          -          -          0          0        0.0          -          -          0          -          -
Separators         :   ExecTime  SetupTime      Calls  RootCalls    Cutoffs    DomReds  FoundCuts ViaPoolAdd  DirectAdd    Applied ViaPoolApp  DirectApp      Conss
  cut pool         :       0.01          -       7071         72          -          -         94        205          -          -          -          -          -    (maximal pool size:          5)
  aggregation      :       5.66       0.00       6254         71          0          0          0          0          0          0          0          0          0
  > cmir           :          -          -          -          -          -          -          -          0          0          0          0          0          -
  > flowcover      :          -          -          -          -          -          -          -          0          0          0          0          0          -
  > knapsackcover  :          -          -          -          -          -          -          -          0          0          0          0          0          -
  cgmip            :       0.00       0.00          0          0          0          0          0          0          0          0          0          0          0
  clique           :       0.00       0.00          1          1          0          0          0          0          0          0          0          0          0
  closecuts        :       0.00       0.00          0          0          0          0          0          0          0          0          0          0          0
  convexproj       :       0.00       0.00          0          0          0          0          0          0          0          0          0          0          0
  disjunctive      :       0.00       0.00          0          0          0          0          0          0          0          0          0          0          0
  eccuts           :       0.00       0.00          0          0          0          0          0          0          0          0          0          0          0
  gauge            :       0.00       0.00          0          0          0          0          0          0          0          0          0          0          0
  gomory           :       2.25       0.00       3475         10          0          0         94        205          0        173        173          0          0
  > gomorymi       :          -          -          -          -          -          -          -        205          0        173        173          0          -
  > strongcg       :          -          -          -          -          -          -          -          0          0          0          0          0          -
  impliedbounds    :       0.30       0.00       6254         71          0          0          0          0          0          0          0          0          0
  interminor       :       0.00       0.00          0          0          0          0          0          0          0          0          0          0          0
  intobj           :       0.00       0.00          0          0          0          0          0          0          0          0          0          0          0
  mcf              :       0.00       0.00          3          3          0          0          0          0          0          0          0          0          0
  minor            :       0.00       0.00          0          0          0          0          0          0          0          0          0          0          0
  mixing           :       0.18       0.00       6254         71          0          0          0          0          0          0          0          0          0
  oddcycle         :       0.00       0.00          0          0          0          0          0          0          0          0          0          0          0
  rapidlearning    :       0.03       0.00          0          0          0          0          0          0          0          0          0          0          0
  rlt              :       0.00       0.00         10         10          0          0          0          0          0          0          0          0          0
  zerohalf         :       0.52       0.00       3485         20          0          0          0          0          0          0          0          0          0
Cutselectors       :   ExecTime  SetupTime      Calls  RootCalls   Selected     Forced   Filtered  RootSelec   RootForc   RootFilt 
  hybrid           :       1.04       0.00     412924         71    1371615          0      18015       2076          0         55
Pricers            :   ExecTime  SetupTime      Calls       Vars
  problem variables:       0.00          -          0          0
Branching Rules    :   ExecTime  SetupTime   BranchLP  BranchExt   BranchPS    Cutoffs    DomReds       Cuts      Conss   Children
  allfullstrong    :       0.00       0.00          0          0          0          0          0          0          0          0
  cloud            :       0.00       0.00          0          0          0          0          0          0          0          0
  distribution     :       0.00       0.00          0          0          0          0          0          0          0          0
  fullstrong       :       0.00       0.00          0          0          0          0          0          0          0          0
  inference        :       0.00       0.00          0          0          0          0          0          0          0          0
  leastinf         :       0.00       0.00          0          0          0          0          0          0          0          0
  lookahead        :       0.00       0.00          0          0          0          0          0          0          0          0
  mostinf          :       0.00       0.00          0          0          0          0          0          0          0          0
  multaggr         :       0.00       0.00          0          0          0          0          0          0          0          0
  nodereopt        :       0.00       0.00          0          0          0          0          0          0          0          0
  pscost           :       0.00       0.00          0          0          0          0          0          0          0          0
  random           :       0.00       0.00          0          0          0          0          0          0          0          0
  relpscost        :      11.17       0.00      50643          0          0          0       6749          0          0     100758
  vanillafullstrong:       0.00       0.00          0          0          0          0          0          0          0          0
Primal Heuristics  :   ExecTime  SetupTime      Calls      Found       Best
  LP solutions     :       0.00          -          -          1          1
  relax solutions  :       0.00          -          -          0          0
  pseudo solutions :       0.00          -          -          0          0
  strong branching :       0.01          -          -          0          0
  actconsdiving    :       0.00       0.00          0          0          0
  adaptivediving   :       1.97       0.00         66          0          0
  alns             :       6.10       0.00         11          1          1
  bound            :       0.00       0.00          0          0          0
  clique           :       0.00       0.00          0          0          0
  coefdiving       :       0.00       0.00          0          0          0
  completesol      :       0.00       0.00          0          0          0
  conflictdiving   :      95.77       0.00       2682          0          0
  crossover        :       0.00       0.00          0          0          0
  dins             :       0.00       0.00          0          0          0
  distributiondivin:     667.37       0.00       1778          0          0
  dps              :       0.00       0.00          0          0          0
  dualval          :       0.00       0.00          0          0          0
  farkasdiving     :       0.00       0.00          0          0          0
  feaspump         :      20.38       0.00        248          0          0
  fixandinfer      :       0.00       0.00          0          0          0
  fracdiving       :      54.02       0.00       1562          0          0
  gins             :       0.04       0.00          0          0          0
  guideddiving     :      55.82       0.00       1645          0          0
  indicator        :       0.26       0.00          0          0          0
  indicatordiving  :       0.00       0.00          0          0          0
  intdiving        :       0.00       0.00          0          0          0
  intshifting      :       1.13       0.00         83          0          0
  linesearchdiving :      56.15       0.00       2107          0          0
  localbranching   :       0.00       0.00          0          0          0
  locks            :       0.04       0.00          1          0          0
  lpface           :       0.03       0.00          0          0          0
  mpec             :       4.47       0.00          1          0          0
  multistart       :       0.00       0.00          0          0          0
  mutation         :       0.00       0.00          0          0          0
  nlpdiving        :       4.40       0.00          2          0          0
  objpscostdiving  :      33.56       0.00        138          0          0
  octane           :       0.00       0.00          0          0          0
  ofins            :       0.06       0.00          0          0          0
  oneopt           :       0.04       0.00          5          0          0
  padm             :       0.00       0.00          0          0          0
  proximity        :       0.00       0.00          0          0          0
  pscostdiving     :      55.94       0.00       1371          0          0
  randrounding     :       6.87       0.00      36532          0          0
  rens             :       0.00       0.00          0          0          0
  reoptsols        :       0.00       0.00          0          0          0
  repair           :       0.00       0.00          0          0          0
  rins             :      12.13       0.00          9          0          0
  rootsoldiving    :       4.55       0.00         58          0          0
  rounding         :       0.94       0.00       9431          0          0
  shiftandpropagate:       0.01       0.00          1          0          0
  shifting         :       1.81       0.00       2874          0          0
  simplerounding   :       0.32       0.00          0          0          0
  subnlp           :       9.25       0.00         37          4          4
  trivial          :       0.01       0.00          2          0          0
  trivialnegation  :       0.00       0.00          0          0          0
  trustregion      :       0.00       0.00          0          0          0
  trysol           :       0.20       0.00          0          0          0
  twoopt           :       0.00       0.00          0          0          0
  undercover       :       0.24       0.00          1          0          0
  vbounds          :       0.00       0.00          0          0          0
  veclendiving     :      49.17       0.00       2250          0          0
  zeroobj          :       0.00       0.00          0          0          0
  zirounding       :       0.05       0.00       1000          0          0
  other solutions  :          -          -          -          0          -
Diving (single)    :      Calls      Nodes   LP Iters Backtracks  Conflicts   MinDepth   MaxDepth   AvgDepth  RoundSols  NLeafSols  MinSolDpt  MaxSolDpt  AvgSolDpt
  actconsdiving    :          0          -          -          -          -          -          -          -          -          -          -          -          -
  coefdiving       :          0          -          -          -          -          -          -          -          -          -          -          -          -
  conflictdiving   :       2682      84704    1138357         74         23         24         55       51.6          0          -          -          -          -
  distributiondivin:       1778      34473     595636         22          5         12         55       37.5          0          -          -          -          -
  farkasdiving     :          0          -          -          -          -          -          -          -          -          -          -          -          -
  fracdiving       :       1562      55826     601558         16          2         27         55       53.0          0          -          -          -          -
  guideddiving     :       1645      50985     601720          5          2         26         55       49.8          0          -          -          -          -
  indicatordiving  :          0          -          -          -          -          -          -          -          -          -          -          -          -
  linesearchdiving :       2107      43286     601112          4          1         26         50       39.1          0          -          -          -          -
  pscostdiving     :       1371      49484     602536          6          1         37         55       53.7          0          -          -          -          -
  veclendiving     :       2250       7987     519439         22          1         12         33       21.4          0          -          -          -          -
Diving (adaptive)  :      Calls      Nodes   LP Iters Backtracks  Conflicts   MinDepth   MaxDepth   AvgDepth  RoundSols  NLeafSols  MinSolDpt  MaxSolDpt  AvgSolDpt
  actconsdiving    :         11         46       2900          1          0         15         28       21.3          0          -          -          -          -
  coefdiving       :         23         83       5265          1          0         17         29       22.4          0          -          -          -          -
  conflictdiving   :          0          -          -          -          -          -          -          -          -          -          -          -          -
  distributiondivin:          0          -          -          -          -          -          -          -          -          -          -          -          -
  farkasdiving     :          0          -          -          -          -          -          -          -          -          -          -          -          -
  fracdiving       :          1         39        376          0          0         55         55       55.0          0          -          -          -          -
  guideddiving     :         18        587       6930          0          0         34         55       49.8          0          -          -          -          -
  indicatordiving  :          0          -          -          -          -          -          -          -          -          -          -          -          -
  linesearchdiving :          5        108       1576          0          0         30         43       38.0          0          -          -          -          -
  pscostdiving     :          2         87        944          0          0         54         55       54.5          0          -          -          -          -
  veclendiving     :          6         31       1717          0          0         17         23       19.5          0          -          -          -          -
Neighborhoods      :      Calls  SetupTime  SolveTime SolveNodes       Sols       Best       Exp3  EpsGreedy        UCB TgtFixRate  Opt  Inf Node Stal  Sol  Usr Othr Actv
  rens             :          1       0.00       0.41          9          0          0    0.00000   -1.00000    0.55487      0.700    0    1    0    0    0    0    0    1
  rins             :          1       0.01       0.58         25          0          0    0.00000   -1.00000    0.53578      0.700    0    1    0    0    0    0    0    1
  mutation         :          1       0.01       0.58         19          0          0    0.00000   -1.00000    0.54578      0.700    0    1    0    0    0    0    0    1
  localbranching   :          1       0.01       0.72         27          0          0    0.00000   -1.00000    0.53360      0.700    0    1    0    0    0    0    0    1
  crossover        :          1       0.01       0.62         23          0          0    0.00000   -1.00000    0.53796      0.700    0    1    0    0    0    0    0    1
  proximity        :          4       0.04       2.48        123          1          1    0.00000   -1.00000    0.56795      0.816    1    1    0    2    0    0    0    1
  zeroobjective    :          1       0.00       0.00          0          0          0    0.00000   -1.00000    0.06305      0.900    0    0    0    0    0    0    1    1
  dins             :          1       0.01       0.54         23          0          0    0.00000   -1.00000    0.53796      0.700    0    1    0    0    0    0    0    1
  trustregion      :          0       0.00       0.00          0          0          0    0.00000   -1.00000    1.00000      0.900    0    0    0    0    0    0    0    0
Expressions        :   #IntEval  IntEvalTi   #RevProp  RevPropTi    DomReds    Cutoffs  #Estimate  EstimTime  Branching  #Simplify SimplifyTi Simplified
  pow              :   38036221       7.67   10752004       2.24   18723539          0       1829       0.00          0       1420       0.00          0
  prod             :   30786150       7.25     248052       1.08        133          0          0       0.00          0       1102       0.00        550
  sum              :   35818882       7.57   19567368       5.47    2445318         41        101       0.00          0       1402       0.01        101
  var              :   88199448      16.45          0       0.00          0          0          0       0.00          0       3821       0.00          0
  varidx           :          0       0.00          0       0.00          0          0          0       0.00          0          0       0.00          0
Nonlinear Conshdlr :   WeakSepa  TightenLP DespTghtLP DespBranch DespCutoff    ForceLP  CanonTime
  enforce          :       2053          0          0          0          0          0
  presolve         :                                                                         0.08
Nlhdlrs            :    Detects  DetectAll DetectTime   #IntEval  IntEvalTi   #RevProp  RevPropTi    DomReds    Cutoffs   #Enforce   EnfoTime       Cuts  Branching
  soc              :        550        550       0.00          0       0.00          0       0.00          0          0  139352011     173.65     976989          0
  convex           :          1          1       0.01          0       0.00          0       0.00          0          0     412918       2.09     412917          0
  concave          :          0          0       0.00          0       0.00          0       0.00          0          0          0       0.00          0          0
  quotient         :          0          0       0.01          0       0.00          0       0.00          0          0          0       0.00          0          0
  quadratic        :          0          0       0.00          0       0.00          0       0.00          0          0          0       0.00          0          0
  default          :       3228      16140       0.00  104638507      54.55   30571522      47.24   21168990         41       1930       0.00       1729          0
  bilinear         :          0          0       0.01          0       0.00          0       0.00          0          0          0       0.00          0          0
  perspective      :          0          0       0.00          0       0.00          0       0.00          0          0          0       0.00          0          0
LP                 :       Time      Calls Iterations  Iter/call   Iter/sec  Time-0-It Calls-0-It    ItLimit
  primal LP        :     754.84      57069          0       0.00       0.00     754.69      57069
  dual LP          :     999.11     463669   11943007      25.77   11953.65       0.07        273
  lex dual LP      :       0.00          0          0       0.00          -
  barrier LP       :       0.00          0          0       0.00          -       0.00          0
  resolve instable :       0.01          1          4       4.00     400.00
  diving/probing LP:     213.24      79793    5043583      63.21   23652.14
  strong branching :       4.93        895      67045      74.91   13599.39          -          -        347
    (at root node) :          -         42       3148      74.95          -
  conflict analysis:       0.16        280       2649       9.46   16556.25
NLP relaxation     :
  solve time       :       4.38 (8 calls)
  convexity        :  nonconvex (77 linear rows, 101 convex ineq., 550 nonconvex ineq., 0 nonlinear eq. or two-sided ineq.)
NLP Solvers        :  #Problems  ProblemTi    #Solves  SolveTime      #Iter  Time/Iter      #Okay #TimeLimit #IterLimit #LObjLimit #Interrupt  #NumError #EvalError  #OutOfMem #LicenseEr #OtherTerm   #GlobOpt    #LocOpt  #Feasible #LocInfeas #GlobInfea #Unbounded   #Unknown
  ipopt            :         39      22.16         48      16.35       2403       0.01         39          0          9          0          0          0          0          0          0          0          0         12          3         23          0          0         10
B&B Tree           :
  number of runs   :          1
  nodes            :      50387 (50379 internal, 8 leaves)
  feasible leaves  :          1
  infeas. leaves   :          0
  objective leaves :          7
  nodes (total)    :      50387 (50379 internal, 8 leaves)
  nodes left       :      50372
  max depth        :         27
  max depth (total):         27
  backtracks       :      16517 (32.8%)
  early backtracks :          0 (0.0%)
  nodes exc. ref.  :          0 (0.0%)
  delayed cutoffs  :          0
  repropagations   :          5 (0 domain reductions, 0 cutoffs)
  avg switch length:      10.18
  switching time   :     688.52
Estim. Tree Size   :     493523
Estimation Tree    : 100759 nodes (50387 visited, 50379 internal, 8 leaves, 50372 open), weight: 0.0001 completed 0.0455
Estimations        :      estim      value      trend resolution     smooth
  wbe              :     294336          -          -          -          -
  tree-profile     :         -1          -          -          -          -
  gap              :         18    0.66730    0.19631          1         18
  tree-weight      :     493524    0.00005    0.00000          1     499724
  leaf-frequency   :        420    0.00015    0.00247          1        337
  ssg              :         58    0.92812   -0.04314          1         55
  open-nodes       :     100774 50372.00000 9402.67609          1      96603
Root Node          :
  First LP value   : -1.87488165749254e+00
  First LP Iters   :       2177 (31100.00 Iter/sec)
  First LP Time    :       0.07
  Final Dual Bound : -1.61288605289012e+00
  Final Root Iters :      10228
  Root LP Estimate : -1.25867687757074e+00
Solution           :
  Solutions found  :          6 (6 improvements)
  First Solution   : -2.85171200731809e-01   (in run 1, after 1 nodes, 0.93 seconds, depth 0, found by <randrounding>)
  Gap First Sol.   :     557.46 %
  Gap Last Sol.    :      50.60 %
  Primal Bound     : -1.00001201888546e+00   (in run 1, after 30912 nodes, 2002.14 seconds, depth 19, found by <relaxation>)
  Dual Bound       : -1.49858969422584e+00
  Gap              :      49.86 %
Integrals          :      Total       Avg%
  primal-dual      :  122899.61      34.14
  primal-ref       :          -          - (not evaluated)
  dual-ref         :          -          - (not evaluated)
